generated by phonopy
   1.0
    19.2557548196845900    0.0000000000000000    0.0000000000000000
     0.0000000000000000   19.2557548196845900    0.0000000000000000
     0.0000000000000000    0.0000000000000000   25.7835990924084939
Cu Bi S O
 150  150  150  150
Direct
  0.0000000000000000  0.0000000000000000  0.1666666666666667
  0.2000000000000000  0.0000000000000000  0.1666666666666667
  0.4000000000000000  0.0000000000000000  0.1666666666666667
  0.6000000000000001  0.0000000000000000  0.1666666666666667
  0.8000000000000000  0.0000000000000000  0.1666666666666667
  0.0000000000000000  0.2000000000000000  0.1666666666666667
  0.2000000000000000  0.2000000000000000  0.1666666666666667
  0.4000000000000000  0.2000000000000000  0.1666666666666667
  0.6000000000000001  0.2000000000000000  0.1666666666666667
  0.8000000000000000  0.2000000000000000  0.1666666666666667
  0.0000000000000000  0.4000000000000000  0.1666666666666667
  0.2000000000000000  0.4000000000000000  0.1666666666666667
  0.4000000000000000  0.4000000000000000  0.1666666666666667
  0.6000000000000001  0.4000000000000000  0.1666666666666667
  0.8000000000000000  0.4000000000000000  0.1666666666666667
  0.0000000000000000  0.6000000000000001  0.1666666666666667
  0.2000000000000000  0.6000000000000001  0.1666666666666667
  0.4000000000000000  0.6000000000000001  0.1666666666666667
  0.6000000000000001  0.6000000000000001  0.1666666666666667
  0.8000000000000000  0.6000000000000001  0.1666666666666667
  0.0000000000000000  0.8000000000000000  0.1666666666666667
  0.2000000000000000  0.8000000000000000  0.1666666666666667
  0.4000000000000000  0.8000000000000000  0.1666666666666667
  0.6000000000000001  0.8000000000000000  0.1666666666666667
  0.8000000000000000  0.8000000000000000  0.1666666666666667
  0.0000000000000000  0.0000000000000000  0.5000000000000000
  0.2000000000000000  0.0000000000000000  0.5000000000000000
  0.4000000000000000  0.0000000000000000  0.5000000000000000
  0.6000000000000001  0.0000000000000000  0.5000000000000000
  0.8000000000000000  0.0000000000000000  0.5000000000000000
  0.0000000000000000  0.2000000000000000  0.5000000000000000
  0.2000000000000000  0.2000000000000000  0.5000000000000000
  0.4000000000000000  0.2000000000000000  0.5000000000000000
  0.6000000000000001  0.2000000000000000  0.5000000000000000
  0.8000000000000000  0.2000000000000000  0.5000000000000000
  0.0000000000000000  0.4000000000000000  0.5000000000000000
  0.2000000000000000  0.4000000000000000  0.5000000000000000
  0.4000000000000000  0.4000000000000000  0.5000000000000000
  0.6000000000000001  0.4000000000000000  0.5000000000000000
  0.8000000000000000  0.4000000000000000  0.5000000000000000
  0.0000000000000000  0.6000000000000001  0.5000000000000000
  0.2000000000000000  0.6000000000000001  0.5000000000000000
  0.4000000000000000  0.6000000000000001  0.5000000000000000
  0.6000000000000001  0.6000000000000001  0.5000000000000000
  0.8000000000000000  0.6000000000000001  0.5000000000000000
  0.0000000000000000  0.8000000000000000  0.5000000000000000
  0.2000000000000000  0.8000000000000000  0.5000000000000000
  0.4000000000000000  0.8000000000000000  0.5000000000000000
  0.6000000000000001  0.8000000000000000  0.5000000000000000
  0.8000000000000000  0.8000000000000000  0.5000000000000000
  0.0000000000000000  0.0000000000000000  0.8333333333333333
  0.2000000000000000  0.0000000000000000  0.8333333333333333
  0.4000000000000000  0.0000000000000000  0.8333333333333333
  0.6000000000000001  0.0000000000000000  0.8333333333333333
  0.8000000000000000  0.0000000000000000  0.8333333333333333
  0.0000000000000000  0.2000000000000000  0.8333333333333333
  0.2000000000000000  0.2000000000000000  0.8333333333333333
  0.4000000000000000  0.2000000000000000  0.8333333333333333
  0.6000000000000001  0.2000000000000000  0.8333333333333333
  0.8000000000000000  0.2000000000000000  0.8333333333333333
  0.0000000000000000  0.4000000000000000  0.8333333333333333
  0.2000000000000000  0.4000000000000000  0.8333333333333333
  0.4000000000000000  0.4000000000000000  0.8333333333333333
  0.6000000000000001  0.4000000000000000  0.8333333333333333
  0.8000000000000000  0.4000000000000000  0.8333333333333333
  0.0000000000000000  0.6000000000000001  0.8333333333333333
  0.2000000000000000  0.6000000000000001  0.8333333333333333
  0.4000000000000000  0.6000000000000001  0.8333333333333333
  0.6000000000000001  0.6000000000000001  0.8333333333333333
  0.8000000000000000  0.6000000000000001  0.8333333333333333
  0.0000000000000000  0.8000000000000000  0.8333333333333333
  0.2000000000000000  0.8000000000000000  0.8333333333333333
  0.4000000000000000  0.8000000000000000  0.8333333333333333
  0.6000000000000001  0.8000000000000000  0.8333333333333333
  0.8000000000000000  0.8000000000000000  0.8333333333333333
  0.1000000000000000  0.1000000000000000  0.1666666666666667
  0.3000000000000000  0.1000000000000000  0.1666666666666667
  0.5000000000000000  0.1000000000000000  0.1666666666666667
  0.7000000000000001  0.1000000000000000  0.1666666666666667
  0.9000000000000000  0.1000000000000000  0.1666666666666667
  0.1000000000000000  0.3000000000000000  0.1666666666666667
  0.3000000000000000  0.3000000000000000  0.1666666666666667
  0.5000000000000000  0.3000000000000000  0.1666666666666667
  0.7000000000000001  0.3000000000000000  0.1666666666666667
  0.9000000000000000  0.3000000000000000  0.1666666666666667
  0.1000000000000000  0.5000000000000000  0.1666666666666667
  0.3000000000000000  0.5000000000000000  0.1666666666666667
  0.5000000000000000  0.5000000000000000  0.1666666666666667
  0.7000000000000001  0.5000000000000000  0.1666666666666667
  0.9000000000000000  0.5000000000000000  0.1666666666666667
  0.1000000000000000  0.7000000000000001  0.1666666666666667
  0.3000000000000000  0.7000000000000001  0.1666666666666667
  0.5000000000000000  0.7000000000000001  0.1666666666666667
  0.7000000000000001  0.7000000000000001  0.1666666666666667
  0.9000000000000000  0.7000000000000001  0.1666666666666667
  0.1000000000000000  0.9000000000000000  0.1666666666666667
  0.3000000000000000  0.9000000000000000  0.1666666666666667
  0.5000000000000000  0.9000000000000000  0.1666666666666667
  0.7000000000000001  0.9000000000000000  0.1666666666666667
  0.9000000000000000  0.9000000000000000  0.1666666666666667
  0.1000000000000000  0.1000000000000000  0.5000000000000000
  0.3000000000000000  0.1000000000000000  0.5000000000000000
  0.5000000000000000  0.1000000000000000  0.5000000000000000
  0.7000000000000001  0.1000000000000000  0.5000000000000000
  0.9000000000000000  0.1000000000000000  0.5000000000000000
  0.1000000000000000  0.3000000000000000  0.5000000000000000
  0.3000000000000000  0.3000000000000000  0.5000000000000000
  0.5000000000000000  0.3000000000000000  0.5000000000000000
  0.7000000000000001  0.3000000000000000  0.5000000000000000
  0.9000000000000000  0.3000000000000000  0.5000000000000000
  0.1000000000000000  0.5000000000000000  0.5000000000000000
  0.3000000000000000  0.5000000000000000  0.5000000000000000
  0.5000000000000000  0.5000000000000000  0.5000000000000000
  0.7000000000000001  0.5000000000000000  0.5000000000000000
  0.9000000000000000  0.5000000000000000  0.5000000000000000
  0.1000000000000000  0.7000000000000001  0.5000000000000000
  0.3000000000000000  0.7000000000000001  0.5000000000000000
  0.5000000000000000  0.7000000000000001  0.5000000000000000
  0.7000000000000001  0.7000000000000001  0.5000000000000000
  0.9000000000000000  0.7000000000000001  0.5000000000000000
  0.1000000000000000  0.9000000000000000  0.5000000000000000
  0.3000000000000000  0.9000000000000000  0.5000000000000000
  0.5000000000000000  0.9000000000000000  0.5000000000000000
  0.7000000000000001  0.9000000000000000  0.5000000000000000
  0.9000000000000000  0.9000000000000000  0.5000000000000000
  0.1000000000000000  0.1000000000000000  0.8333333333333333
  0.3000000000000000  0.1000000000000000  0.8333333333333333
  0.5000000000000000  0.1000000000000000  0.8333333333333333
  0.7000000000000001  0.1000000000000000  0.8333333333333333
  0.9000000000000000  0.1000000000000000  0.8333333333333333
  0.1000000000000000  0.3000000000000000  0.8333333333333333
  0.3000000000000000  0.3000000000000000  0.8333333333333333
  0.5000000000000000  0.3000000000000000  0.8333333333333333
  0.7000000000000001  0.3000000000000000  0.8333333333333333
  0.9000000000000000  0.3000000000000000  0.8333333333333333
  0.1000000000000000  0.5000000000000000  0.8333333333333333
  0.3000000000000000  0.5000000000000000  0.8333333333333333
  0.5000000000000000  0.5000000000000000  0.8333333333333333
  0.7000000000000001  0.5000000000000000  0.8333333333333333
  0.9000000000000000  0.5000000000000000  0.8333333333333333
  0.1000000000000000  0.7000000000000001  0.8333333333333333
  0.3000000000000000  0.7000000000000001  0.8333333333333333
  0.5000000000000000  0.7000000000000001  0.8333333333333333
  0.7000000000000001  0.7000000000000001  0.8333333333333333
  0.9000000000000000  0.7000000000000001  0.8333333333333333
  0.1000000000000000  0.9000000000000000  0.8333333333333333
  0.3000000000000000  0.9000000000000000  0.8333333333333333
  0.5000000000000000  0.9000000000000000  0.8333333333333333
  0.7000000000000001  0.9000000000000000  0.8333333333333333
  0.9000000000000000  0.9000000000000000  0.8333333333333333
  0.0000000000000000  0.1000000000000000  0.2831737332951811
  0.2000000000000000  0.1000000000000000  0.2831737332951811
  0.4000000000000000  0.1000000000000000  0.2831737332951811
  0.6000000000000001  0.1000000000000000  0.2831737332951811
  0.8000000000000000  0.1000000000000000  0.2831737332951811
  0.0000000000000000  0.3000000000000000  0.2831737332951811
  0.2000000000000000  0.3000000000000000  0.2831737332951811
  0.4000000000000000  0.3000000000000000  0.2831737332951811
  0.6000000000000001  0.3000000000000000  0.2831737332951811
  0.8000000000000000  0.3000000000000000  0.2831737332951811
  0.0000000000000000  0.5000000000000000  0.2831737332951811
  0.2000000000000000  0.5000000000000000  0.2831737332951811
  0.4000000000000000  0.5000000000000000  0.2831737332951811
  0.6000000000000001  0.5000000000000000  0.2831737332951811
  0.8000000000000000  0.5000000000000000  0.2831737332951811
  0.0000000000000000  0.7000000000000001  0.2831737332951811
  0.2000000000000000  0.7000000000000001  0.2831737332951811
  0.4000000000000000  0.7000000000000001  0.2831737332951811
  0.6000000000000001  0.7000000000000001  0.2831737332951811
  0.8000000000000000  0.7000000000000001  0.2831737332951811
  0.0000000000000000  0.9000000000000000  0.2831737332951811
  0.2000000000000000  0.9000000000000000  0.2831737332951811
  0.4000000000000000  0.9000000000000000  0.2831737332951811
  0.6000000000000001  0.9000000000000000  0.2831737332951811
  0.8000000000000000  0.9000000000000000  0.2831737332951811
  0.0000000000000000  0.1000000000000000  0.6165070666285144
  0.2000000000000000  0.1000000000000000  0.6165070666285144
  0.4000000000000000  0.1000000000000000  0.6165070666285144
  0.6000000000000001  0.1000000000000000  0.6165070666285144
  0.8000000000000000  0.1000000000000000  0.6165070666285144
  0.0000000000000000  0.3000000000000000  0.6165070666285144
  0.2000000000000000  0.3000000000000000  0.6165070666285144
  0.4000000000000000  0.3000000000000000  0.6165070666285144
  0.6000000000000001  0.3000000000000000  0.6165070666285144
  0.8000000000000000  0.3000000000000000  0.6165070666285144
  0.0000000000000000  0.5000000000000000  0.6165070666285144
  0.2000000000000000  0.5000000000000000  0.6165070666285144
  0.4000000000000000  0.5000000000000000  0.6165070666285144
  0.6000000000000001  0.5000000000000000  0.6165070666285144
  0.8000000000000000  0.5000000000000000  0.6165070666285144
  0.0000000000000000  0.7000000000000001  0.6165070666285144
  0.2000000000000000  0.7000000000000001  0.6165070666285144
  0.4000000000000000  0.7000000000000001  0.6165070666285144
  0.6000000000000001  0.7000000000000001  0.6165070666285144
  0.8000000000000000  0.7000000000000001  0.6165070666285144
  0.0000000000000000  0.9000000000000000  0.6165070666285144
  0.2000000000000000  0.9000000000000000  0.6165070666285144
  0.4000000000000000  0.9000000000000000  0.6165070666285144
  0.6000000000000001  0.9000000000000000  0.6165070666285144
  0.8000000000000000  0.9000000000000000  0.6165070666285144
  0.0000000000000000  0.1000000000000000  0.9498403999618478
  0.2000000000000000  0.1000000000000000  0.9498403999618478
  0.4000000000000000  0.1000000000000000  0.9498403999618478
  0.6000000000000001  0.1000000000000000  0.9498403999618478
  0.8000000000000000  0.1000000000000000  0.9498403999618478
  0.0000000000000000  0.3000000000000000  0.9498403999618478
  0.2000000000000000  0.3000000000000000  0.9498403999618478
  0.4000000000000000  0.3000000000000000  0.9498403999618478
  0.6000000000000001  0.3000000000000000  0.9498403999618478
  0.8000000000000000  0.3000000000000000  0.9498403999618478
  0.0000000000000000  0.5000000000000000  0.9498403999618478
  0.2000000000000000  0.5000000000000000  0.9498403999618478
  0.4000000000000000  0.5000000000000000  0.9498403999618478
  0.6000000000000001  0.5000000000000000  0.9498403999618478
  0.8000000000000000  0.5000000000000000  0.9498403999618478
  0.0000000000000000  0.7000000000000001  0.9498403999618478
  0.2000000000000000  0.7000000000000001  0.9498403999618478
  0.4000000000000000  0.7000000000000001  0.9498403999618478
  0.6000000000000001  0.7000000000000001  0.9498403999618478
  0.8000000000000000  0.7000000000000001  0.9498403999618478
  0.0000000000000000  0.9000000000000000  0.9498403999618478
  0.2000000000000000  0.9000000000000000  0.9498403999618478
  0.4000000000000000  0.9000000000000000  0.9498403999618478
  0.6000000000000001  0.9000000000000000  0.9498403999618478
  0.8000000000000000  0.9000000000000000  0.9498403999618478
  0.1000000000000000  0.0000000000000000  0.0501596000381522
  0.3000000000000000  0.0000000000000000  0.0501596000381522
  0.5000000000000000  0.0000000000000000  0.0501596000381522
  0.7000000000000001  0.0000000000000000  0.0501596000381522
  0.9000000000000000  0.0000000000000000  0.0501596000381522
  0.1000000000000000  0.2000000000000000  0.0501596000381522
  0.3000000000000000  0.2000000000000000  0.0501596000381522
  0.5000000000000000  0.2000000000000000  0.0501596000381522
  0.7000000000000001  0.2000000000000000  0.0501596000381522
  0.9000000000000000  0.2000000000000000  0.0501596000381522
  0.1000000000000000  0.4000000000000000  0.0501596000381522
  0.3000000000000000  0.4000000000000000  0.0501596000381522
  0.5000000000000000  0.4000000000000000  0.0501596000381522
  0.7000000000000001  0.4000000000000000  0.0501596000381522
  0.9000000000000000  0.4000000000000000  0.0501596000381522
  0.1000000000000000  0.6000000000000001  0.0501596000381522
  0.3000000000000000  0.6000000000000001  0.0501596000381522
  0.5000000000000000  0.6000000000000001  0.0501596000381522
  0.7000000000000001  0.6000000000000001  0.0501596000381522
  0.9000000000000000  0.6000000000000001  0.0501596000381522
  0.1000000000000000  0.8000000000000000  0.0501596000381522
  0.3000000000000000  0.8000000000000000  0.0501596000381522
  0.5000000000000000  0.8000000000000000  0.0501596000381522
  0.7000000000000001  0.8000000000000000  0.0501596000381522
  0.9000000000000000  0.8000000000000000  0.0501596000381522
  0.1000000000000000  0.0000000000000000  0.3834929333714855
  0.3000000000000000  0.0000000000000000  0.3834929333714855
  0.5000000000000000  0.0000000000000000  0.3834929333714855
  0.7000000000000001  0.0000000000000000  0.3834929333714855
  0.9000000000000000  0.0000000000000000  0.3834929333714855
  0.1000000000000000  0.2000000000000000  0.3834929333714855
  0.3000000000000000  0.2000000000000000  0.3834929333714855
  0.5000000000000000  0.2000000000000000  0.3834929333714855
  0.7000000000000001  0.2000000000000000  0.3834929333714855
  0.9000000000000000  0.2000000000000000  0.3834929333714855
  0.1000000000000000  0.4000000000000000  0.3834929333714855
  0.3000000000000000  0.4000000000000000  0.3834929333714855
  0.5000000000000000  0.4000000000000000  0.3834929333714855
  0.7000000000000001  0.4000000000000000  0.3834929333714855
  0.9000000000000000  0.4000000000000000  0.3834929333714855
  0.1000000000000000  0.6000000000000001  0.3834929333714855
  0.3000000000000000  0.6000000000000001  0.3834929333714855
  0.5000000000000000  0.6000000000000001  0.3834929333714855
  0.7000000000000001  0.6000000000000001  0.3834929333714855
  0.9000000000000000  0.6000000000000001  0.3834929333714855
  0.1000000000000000  0.8000000000000000  0.3834929333714855
  0.3000000000000000  0.8000000000000000  0.3834929333714855
  0.5000000000000000  0.8000000000000000  0.3834929333714855
  0.7000000000000001  0.8000000000000000  0.3834929333714855
  0.9000000000000000  0.8000000000000000  0.3834929333714855
  0.1000000000000000  0.0000000000000000  0.7168262667048189
  0.3000000000000000  0.0000000000000000  0.7168262667048189
  0.5000000000000000  0.0000000000000000  0.7168262667048189
  0.7000000000000001  0.0000000000000000  0.7168262667048189
  0.9000000000000000  0.0000000000000000  0.7168262667048189
  0.1000000000000000  0.2000000000000000  0.7168262667048189
  0.3000000000000000  0.2000000000000000  0.7168262667048189
  0.5000000000000000  0.2000000000000000  0.7168262667048189
  0.7000000000000001  0.2000000000000000  0.7168262667048189
  0.9000000000000000  0.2000000000000000  0.7168262667048189
  0.1000000000000000  0.4000000000000000  0.7168262667048189
  0.3000000000000000  0.4000000000000000  0.7168262667048189
  0.5000000000000000  0.4000000000000000  0.7168262667048189
  0.7000000000000001  0.4000000000000000  0.7168262667048189
  0.9000000000000000  0.4000000000000000  0.7168262667048189
  0.1000000000000000  0.6000000000000001  0.7168262667048189
  0.3000000000000000  0.6000000000000001  0.7168262667048189
  0.5000000000000000  0.6000000000000001  0.7168262667048189
  0.7000000000000001  0.6000000000000001  0.7168262667048189
  0.9000000000000000  0.6000000000000001  0.7168262667048189
  0.1000000000000000  0.8000000000000000  0.7168262667048189
  0.3000000000000000  0.8000000000000000  0.7168262667048189
  0.5000000000000000  0.8000000000000000  0.7168262667048189
  0.7000000000000001  0.8000000000000000  0.7168262667048189
  0.9000000000000000  0.8000000000000000  0.7168262667048189
  0.1000000000000000  0.0000000000000000  0.2219784728349048
  0.3000000000000000  0.0000000000000000  0.2219784728349048
  0.5000000000000000  0.0000000000000000  0.2219784728349048
  0.7000000000000001  0.0000000000000000  0.2219784728349048
  0.9000000000000000  0.0000000000000000  0.2219784728349048
  0.1000000000000000  0.2000000000000000  0.2219784728349048
  0.3000000000000000  0.2000000000000000  0.2219784728349048
  0.5000000000000000  0.2000000000000000  0.2219784728349048
  0.7000000000000001  0.2000000000000000  0.2219784728349048
  0.9000000000000000  0.2000000000000000  0.2219784728349048
  0.1000000000000000  0.4000000000000000  0.2219784728349048
  0.3000000000000000  0.4000000000000000  0.2219784728349048
  0.5000000000000000  0.4000000000000000  0.2219784728349048
  0.7000000000000001  0.4000000000000000  0.2219784728349048
  0.9000000000000000  0.4000000000000000  0.2219784728349048
  0.1000000000000000  0.6000000000000001  0.2219784728349048
  0.3000000000000000  0.6000000000000001  0.2219784728349048
  0.5000000000000000  0.6000000000000001  0.2219784728349048
  0.7000000000000001  0.6000000000000001  0.2219784728349048
  0.9000000000000000  0.6000000000000001  0.2219784728349048
  0.1000000000000000  0.8000000000000000  0.2219784728349048
  0.3000000000000000  0.8000000000000000  0.2219784728349048
  0.5000000000000000  0.8000000000000000  0.2219784728349048
  0.7000000000000001  0.8000000000000000  0.2219784728349048
  0.9000000000000000  0.8000000000000000  0.2219784728349048
  0.1000000000000000  0.0000000000000000  0.5553118061682381
  0.3000000000000000  0.0000000000000000  0.5553118061682381
  0.5000000000000000  0.0000000000000000  0.5553118061682381
  0.7000000000000001  0.0000000000000000  0.5553118061682381
  0.9000000000000000  0.0000000000000000  0.5553118061682381
  0.1000000000000000  0.2000000000000000  0.5553118061682381
  0.3000000000000000  0.2000000000000000  0.5553118061682381
  0.5000000000000000  0.2000000000000000  0.5553118061682381
  0.7000000000000001  0.2000000000000000  0.5553118061682381
  0.9000000000000000  0.2000000000000000  0.5553118061682381
  0.1000000000000000  0.4000000000000000  0.5553118061682381
  0.3000000000000000  0.4000000000000000  0.5553118061682381
  0.5000000000000000  0.4000000000000000  0.5553118061682381
  0.7000000000000001  0.4000000000000000  0.5553118061682381
  0.9000000000000000  0.4000000000000000  0.5553118061682381
  0.1000000000000000  0.6000000000000001  0.5553118061682381
  0.3000000000000000  0.6000000000000001  0.5553118061682381
  0.5000000000000000  0.6000000000000001  0.5553118061682381
  0.7000000000000001  0.6000000000000001  0.5553118061682381
  0.9000000000000000  0.6000000000000001  0.5553118061682381
  0.1000000000000000  0.8000000000000000  0.5553118061682381
  0.3000000000000000  0.8000000000000000  0.5553118061682381
  0.5000000000000000  0.8000000000000000  0.5553118061682381
  0.7000000000000001  0.8000000000000000  0.5553118061682381
  0.9000000000000000  0.8000000000000000  0.5553118061682381
  0.1000000000000000  0.0000000000000000  0.8886451395015715
  0.3000000000000000  0.0000000000000000  0.8886451395015715
  0.5000000000000000  0.0000000000000000  0.8886451395015715
  0.7000000000000001  0.0000000000000000  0.8886451395015715
  0.9000000000000000  0.0000000000000000  0.8886451395015715
  0.1000000000000000  0.2000000000000000  0.8886451395015715
  0.3000000000000000  0.2000000000000000  0.8886451395015715
  0.5000000000000000  0.2000000000000000  0.8886451395015715
  0.7000000000000001  0.2000000000000000  0.8886451395015715
  0.9000000000000000  0.2000000000000000  0.8886451395015715
  0.1000000000000000  0.4000000000000000  0.8886451395015715
  0.3000000000000000  0.4000000000000000  0.8886451395015715
  0.5000000000000000  0.4000000000000000  0.8886451395015715
  0.7000000000000001  0.4000000000000000  0.8886451395015715
  0.9000000000000000  0.4000000000000000  0.8886451395015715
  0.1000000000000000  0.6000000000000001  0.8886451395015715
  0.3000000000000000  0.6000000000000001  0.8886451395015715
  0.5000000000000000  0.6000000000000001  0.8886451395015715
  0.7000000000000001  0.6000000000000001  0.8886451395015715
  0.9000000000000000  0.6000000000000001  0.8886451395015715
  0.1000000000000000  0.8000000000000000  0.8886451395015715
  0.3000000000000000  0.8000000000000000  0.8886451395015715
  0.5000000000000000  0.8000000000000000  0.8886451395015715
  0.7000000000000001  0.8000000000000000  0.8886451395015715
  0.9000000000000000  0.8000000000000000  0.8886451395015715
  0.0000000000000000  0.1000000000000000  0.1113548604984285
  0.2000000000000000  0.1000000000000000  0.1113548604984285
  0.4000000000000000  0.1000000000000000  0.1113548604984285
  0.6000000000000001  0.1000000000000000  0.1113548604984285
  0.8000000000000000  0.1000000000000000  0.1113548604984285
  0.0000000000000000  0.3000000000000000  0.1113548604984285
  0.2000000000000000  0.3000000000000000  0.1113548604984285
  0.4000000000000000  0.3000000000000000  0.1113548604984285
  0.6000000000000001  0.3000000000000000  0.1113548604984285
  0.8000000000000000  0.3000000000000000  0.1113548604984285
  0.0000000000000000  0.5000000000000000  0.1113548604984285
  0.2000000000000000  0.5000000000000000  0.1113548604984285
  0.4000000000000000  0.5000000000000000  0.1113548604984285
  0.6000000000000001  0.5000000000000000  0.1113548604984285
  0.8000000000000000  0.5000000000000000  0.1113548604984285
  0.0000000000000000  0.7000000000000001  0.1113548604984285
  0.2000000000000000  0.7000000000000001  0.1113548604984285
  0.4000000000000000  0.7000000000000001  0.1113548604984285
  0.6000000000000001  0.7000000000000001  0.1113548604984285
  0.8000000000000000  0.7000000000000001  0.1113548604984285
  0.0000000000000000  0.9000000000000000  0.1113548604984285
  0.2000000000000000  0.9000000000000000  0.1113548604984285
  0.4000000000000000  0.9000000000000000  0.1113548604984285
  0.6000000000000001  0.9000000000000000  0.1113548604984285
  0.8000000000000000  0.9000000000000000  0.1113548604984285
  0.0000000000000000  0.1000000000000000  0.4446881938317618
  0.2000000000000000  0.1000000000000000  0.4446881938317618
  0.4000000000000000  0.1000000000000000  0.4446881938317618
  0.6000000000000001  0.1000000000000000  0.4446881938317618
  0.8000000000000000  0.1000000000000000  0.4446881938317618
  0.0000000000000000  0.3000000000000000  0.4446881938317618
  0.2000000000000000  0.3000000000000000  0.4446881938317618
  0.4000000000000000  0.3000000000000000  0.4446881938317618
  0.6000000000000001  0.3000000000000000  0.4446881938317618
  0.8000000000000000  0.3000000000000000  0.4446881938317618
  0.0000000000000000  0.5000000000000000  0.4446881938317618
  0.2000000000000000  0.5000000000000000  0.4446881938317618
  0.4000000000000000  0.5000000000000000  0.4446881938317618
  0.6000000000000001  0.5000000000000000  0.4446881938317618
  0.8000000000000000  0.5000000000000000  0.4446881938317618
  0.0000000000000000  0.7000000000000001  0.4446881938317618
  0.2000000000000000  0.7000000000000001  0.4446881938317618
  0.4000000000000000  0.7000000000000001  0.4446881938317618
  0.6000000000000001  0.7000000000000001  0.4446881938317618
  0.8000000000000000  0.7000000000000001  0.4446881938317618
  0.0000000000000000  0.9000000000000000  0.4446881938317618
  0.2000000000000000  0.9000000000000000  0.4446881938317618
  0.4000000000000000  0.9000000000000000  0.4446881938317618
  0.6000000000000001  0.9000000000000000  0.4446881938317618
  0.8000000000000000  0.9000000000000000  0.4446881938317618
  0.0000000000000000  0.1000000000000000  0.7780215271650951
  0.2000000000000000  0.1000000000000000  0.7780215271650951
  0.4000000000000000  0.1000000000000000  0.7780215271650951
  0.6000000000000001  0.1000000000000000  0.7780215271650951
  0.8000000000000000  0.1000000000000000  0.7780215271650951
  0.0000000000000000  0.3000000000000000  0.7780215271650951
  0.2000000000000000  0.3000000000000000  0.7780215271650951
  0.4000000000000000  0.3000000000000000  0.7780215271650951
  0.6000000000000001  0.3000000000000000  0.7780215271650951
  0.8000000000000000  0.3000000000000000  0.7780215271650951
  0.0000000000000000  0.5000000000000000  0.7780215271650951
  0.2000000000000000  0.5000000000000000  0.7780215271650951
  0.4000000000000000  0.5000000000000000  0.7780215271650951
  0.6000000000000001  0.5000000000000000  0.7780215271650951
  0.8000000000000000  0.5000000000000000  0.7780215271650951
  0.0000000000000000  0.7000000000000001  0.7780215271650951
  0.2000000000000000  0.7000000000000001  0.7780215271650951
  0.4000000000000000  0.7000000000000001  0.7780215271650951
  0.6000000000000001  0.7000000000000001  0.7780215271650951
  0.8000000000000000  0.7000000000000001  0.7780215271650951
  0.0000000000000000  0.9000000000000000  0.7780215271650951
  0.2000000000000000  0.9000000000000000  0.7780215271650951
  0.4000000000000000  0.9000000000000000  0.7780215271650951
  0.6000000000000001  0.9000000000000000  0.7780215271650951
  0.8000000000000000  0.9000000000000000  0.7780215271650951
  0.1000000000000000  0.1000000000000000  0.0000000000000000
  0.3000000000000000  0.1000000000000000  0.0000000000000000
  0.5000000000000000  0.1000000000000000  0.0000000000000000
  0.7000000000000001  0.1000000000000000  0.0000000000000000
  0.9000000000000000  0.1000000000000000  0.0000000000000000
  0.1000000000000000  0.3000000000000000  0.0000000000000000
  0.3000000000000000  0.3000000000000000  0.0000000000000000
  0.5000000000000000  0.3000000000000000  0.0000000000000000
  0.7000000000000001  0.3000000000000000  0.0000000000000000
  0.9000000000000000  0.3000000000000000  0.0000000000000000
  0.1000000000000000  0.5000000000000000  0.0000000000000000
  0.3000000000000000  0.5000000000000000  0.0000000000000000
  0.5000000000000000  0.5000000000000000  0.0000000000000000
  0.7000000000000001  0.5000000000000000  0.0000000000000000
  0.9000000000000000  0.5000000000000000  0.0000000000000000
  0.1000000000000000  0.7000000000000001  0.0000000000000000
  0.3000000000000000  0.7000000000000001  0.0000000000000000
  0.5000000000000000  0.7000000000000001  0.0000000000000000
  0.7000000000000001  0.7000000000000001  0.0000000000000000
  0.9000000000000000  0.7000000000000001  0.0000000000000000
  0.1000000000000000  0.9000000000000000  0.0000000000000000
  0.3000000000000000  0.9000000000000000  0.0000000000000000
  0.5000000000000000  0.9000000000000000  0.0000000000000000
  0.7000000000000001  0.9000000000000000  0.0000000000000000
  0.9000000000000000  0.9000000000000000  0.0000000000000000
  0.1000000000000000  0.1000000000000000  0.3333333333333333
  0.3000000000000000  0.1000000000000000  0.3333333333333333
  0.5000000000000000  0.1000000000000000  0.3333333333333333
  0.7000000000000001  0.1000000000000000  0.3333333333333333
  0.9000000000000000  0.1000000000000000  0.3333333333333333
  0.1000000000000000  0.3000000000000000  0.3333333333333333
  0.3000000000000000  0.3000000000000000  0.3333333333333333
  0.5000000000000000  0.3000000000000000  0.3333333333333333
  0.7000000000000001  0.3000000000000000  0.3333333333333333
  0.9000000000000000  0.3000000000000000  0.3333333333333333
  0.1000000000000000  0.5000000000000000  0.3333333333333333
  0.3000000000000000  0.5000000000000000  0.3333333333333333