generated by phonopy
   1.0
     3.8511509639369184    0.0000000000000000    0.0000000000000000
     0.0000000000000000    3.8511509639369184    0.0000000000000000
     0.0000000000000000    0.0000000000000000    8.5945330308028307
Cu Bi S O
   2    2    2    2
Direct
  0.0000000000000000  0.0000000000000000  0.5000000000000000
  0.5000000000000000  0.5000000000000000  0.5000000000000000
  0.0000000000000000  0.5000000000000000  0.8495211998855434
  0.5000000000000000  0.0000000000000000  0.1504788001144566
  0.5000000000000000  0.0000000000000000  0.6659354185047144
  0.0000000000000000  0.5000000000000000  0.3340645814952856
  0.5000000000000000  0.5000000000000000  0.0000000000000000
  0.0000000000000000  0.0000000000000000  0.0000000000000000
